c User generated cnf file
p cnf 12 49
3 11 -7 0 
4 7 -5 0 
-8 7 1 0 
9 9 -3 0 
-12 10 9 0 
10 9 -8 0 
6 -4 3 0 
2 3 -2 0 
9 4 -1 0 
2 -1 9 0 
7 -12 6 0 
11 -3 1 0 
9 11 -1 0 
7 -9 1 0 
10 7 -5 0 
-6 10 11 0 
-11 4 8 0 
-10 8 4 0 
10 7 -10 0 
4 -11 12 0 
-7 9 4 0 
-6 2 7 0 
5 8 -12 0 
12 -1 5 0 
8 -7 12 0 
3 -4 5 0 
-11 3 11 0 
11 -1 6 0 
9 -10 12 0 
9 12 -11 0 
11 11 -9 0 
-1 12 10 0 
7 -3 11 0 
-9 8 5 0 
6 -7 8 0 
7 -1 6 0 
10 8 -1 0 
-10 8 6 0 
7 -8 7 0 
-10 2 5 0 
1 -7 1 0 
-2 10 1 0 
8 -9 11 0 
-3 7 1 0 
5 -9 2 0 
11 8 -11 0 
3 -8 6 0 
-10 2 1 0 
11 12 -4 0 
